p cnf 22 7
a 1 2 3 0
e 4 5 0
a 6 0
e 7 8 9 0
a 10 11 0
e 12 13 0
a 14 0
e 15 16 0
a 17 0
e 18 19 0
a 20 21 22 0
-14 9 7 0
-5 -4 12 -17 -2 0
-2 -11 -18 -21 12 0
3 -19 7 -2 -8 0
-18 21 -6 12 0
-16 -3 15 0
-5 -22 17 -2 -6 0
